NAME:  inst4_10
TYPE: ATSP
COMMENT: Asymmetric TSP (Fischetti)
DIMENSION:  10
EDGE_WEIGHT_TYPE: EXPLICIT
EDGE_WEIGHT_FORMAT: FULL_MATRIX 
EDGE_WEIGHT_SECTION
    0  820  896  235  371  361  695  309  938  239
    165  0  755  529  149  524  746  793  478  692
    736  641  0  294  837  316  488  394  243  176
    277  792  175  0  501  422  225  108  599  804
    780  875  135  300  0  947  483  556  648  496
    544  973  479  538  216  0  548  411  682  635
    670  685  283  529  712  803  0  216  484  560
    978  273  135  495  821  672  939  0  992  667
    709  525  474  556  699  550  254  579  0  424
    696  563  584  442  727  349  167  188  130  0
EOF
